1111100 AB
397 467 551 651 728 805 882 959 1036 1113 1180 1246 1312
1111100 BA
309 370 451 496 567 651 751 828 905 982 1059 1136 1213
0000011 AB
400 520 641 762 882 1002 1121 1210 1300
0000011 BA
309 399 489 610 731 852 972 1092 1211
